(declare-const r Relation)
(declare-fun p100 (World) Bool)
(declare-fun p101 (World) Bool)
(declare-fun p102 (World) Bool)
(declare-fun p103 (World) Bool)
(declare-fun p104 (World) Bool)
(declare-fun p105 (World) Bool)
(declare-fun p0 (World) Bool)
(declare-fun p1 (World) Bool)
(declare-fun p2 (World) Bool)
(declare-fun p3 (World) Bool)
(declare-fun p4 (World) Bool)
(assert (not (or (not (and (and (p100 world) (not (p101 world))) (and (and (and (and (and (and (and (and (and (and (=> (p101 world) (p100 world)) (=> (p102 world) (p101 world))) (=> (p103 world) (p102 world))) (=> (p104 world) (p103 world))) (=> (p105 world) (p104 world))) (and (and (and (and (=> (p100 world) (and (=> (p0 world) (box r (=> (p100 world) (p0 world)))) (=> (not (p0 world)) (box r (=> (p100 world) (not (p0 world))))))) (=> (p101 world) (and (=> (p1 world) (box r (=> (p101 world) (p1 world)))) (=> (not (p1 world)) (box r (=> (p101 world) (not (p1 world)))))))) (=> (p102 world) (and (=> (p2 world) (box r (=> (p102 world) (p2 world)))) (=> (not (p2 world)) (box r (=> (p102 world) (not (p2 world)))))))) (=> (p103 world) (and (=> (p3 world) (box r (=> (p103 world) (p3 world)))) (=> (not (p3 world)) (box r (=> (p103 world) (not (p3 world)))))))) (=> (p104 world) (and (=> (p4 world) (box r (=> (p104 world) (p4 world)))) (=> (not (p4 world)) (box r (=> (p104 world) (not (p4 world))))))))) (and (and (and (=> (and (p100 world) (not (p101 world))) (and (dia r (and (and (p101 world) (not (p102 world))) (p1 world))) (dia r (and (and (p101 world) (not (p102 world))) (not (p1 world)))))) (=> (and (p101 world) (not (p102 world))) (and (dia r (and (and (p102 world) (not (p103 world))) (p2 world))) (dia r (and (and (p102 world) (not (p103 world))) (not (p2 world))))))) (=> (and (p102 world) (not (p103 world))) (and (dia r (and (and (p103 world) (not (p104 world))) (p3 world))) (dia r (and (and (p103 world) (not (p104 world))) (not (p3 world))))))) (=> (and (p103 world) (not (p104 world))) (and (dia r (and (and (p104 world) (not (p105 world))) (p4 world))) (dia r (and (and (p104 world) (not (p105 world))) (not (p4 world)))))))) (box r (and (and (and (and (and (and (=> (p101 world) (p100 world)) (=> (p102 world) (p101 world))) (=> (p103 world) (p102 world))) (=> (p104 world) (p103 world))) (=> (p105 world) (p104 world))) (and (and (and (and (=> (p100 world) (and (=> (p0 world) (box r (=> (p100 world) (p0 world)))) (=> (not (p0 world)) (box r (=> (p100 world) (not (p0 world))))))) (=> (p101 world) (and (=> (p1 world) (box r (=> (p101 world) (p1 world)))) (=> (not (p1 world)) (box r (=> (p101 world) (not (p1 world)))))))) (=> (p102 world) (and (=> (p2 world) (box r (=> (p102 world) (p2 world)))) (=> (not (p2 world)) (box r (=> (p102 world) (not (p2 world)))))))) (=> (p103 world) (and (=> (p3 world) (box r (=> (p103 world) (p3 world)))) (=> (not (p3 world)) (box r (=> (p103 world) (not (p3 world)))))))) (=> (p104 world) (and (=> (p4 world) (box r (=> (p104 world) (p4 world)))) (=> (not (p4 world)) (box r (=> (p104 world) (not (p4 world))))))))) (and (and (and (=> (and (p100 world) (not (p101 world))) (and (dia r (and (and (p101 world) (not (p102 world))) (p1 world))) (dia r (and (and (p101 world) (not (p102 world))) (not (p1 world)))))) (=> (and (p101 world) (not (p102 world))) (and (dia r (and (and (p102 world) (not (p103 world))) (p2 world))) (dia r (and (and (p102 world) (not (p103 world))) (not (p2 world))))))) (=> (and (p102 world) (not (p103 world))) (and (dia r (and (and (p103 world) (not (p104 world))) (p3 world))) (dia r (and (and (p103 world) (not (p104 world))) (not (p3 world))))))) (=> (and (p103 world) (not (p104 world))) (and (dia r (and (and (p104 world) (not (p105 world))) (p4 world))) (dia r (and (and (p104 world) (not (p105 world))) (not (p4 world)))))))))) (box r (box r (and (and (and (and (and (and (=> (p101 world) (p100 world)) (=> (p102 world) (p101 world))) (=> (p103 world) (p102 world))) (=> (p104 world) (p103 world))) (=> (p105 world) (p104 world))) (and (and (and (and (=> (p100 world) (and (=> (p0 world) (box r (=> (p100 world) (p0 world)))) (=> (not (p0 world)) (box r (=> (p100 world) (not (p0 world))))))) (=> (p101 world) (and (=> (p1 world) (box r (=> (p101 world) (p1 world)))) (=> (not (p1 world)) (box r (=> (p101 world) (not (p1 world)))))))) (=> (p102 world) (and (=> (p2 world) (box r (=> (p102 world) (p2 world)))) (=> (not (p2 world)) (box r (=> (p102 world) (not (p2 world)))))))) (=> (p103 world) (and (=> (p3 world) (box r (=> (p103 world) (p3 world)))) (=> (not (p3 world)) (box r (=> (p103 world) (not (p3 world)))))))) (=> (p104 world) (and (=> (p4 world) (box r (=> (p104 world) (p4 world)))) (=> (not (p4 world)) (box r (=> (p104 world) (not (p4 world))))))))) (and (and (and (=> (and (p100 world) (not (p101 world))) (and (dia r (and (and (p101 world) (not (p102 world))) (p1 world))) (dia r (and (and (p101 world) (not (p102 world))) (not (p1 world)))))) (=> (and (p101 world) (not (p102 world))) (and (dia r (and (and (p102 world) (not (p103 world))) (p2 world))) (dia r (and (and (p102 world) (not (p103 world))) (not (p2 world))))))) (=> (and (p102 world) (not (p103 world))) (and (dia r (and (and (p103 world) (not (p104 world))) (p3 world))) (dia r (and (and (p103 world) (not (p104 world))) (not (p3 world))))))) (=> (and (p103 world) (not (p104 world))) (and (dia r (and (and (p104 world) (not (p105 world))) (p4 world))) (dia r (and (and (p104 world) (not (p105 world))) (not (p4 world))))))))))) (box r (box r (box r (and (and (and (and (and (and (=> (p101 world) (p100 world)) (=> (p102 world) (p101 world))) (=> (p103 world) (p102 world))) (=> (p104 world) (p103 world))) (=> (p105 world) (p104 world))) (and (and (and (and (=> (p100 world) (and (=> (p0 world) (box r (=> (p100 world) (p0 world)))) (=> (not (p0 world)) (box r (=> (p100 world) (not (p0 world))))))) (=> (p101 world) (and (=> (p1 world) (box r (=> (p101 world) (p1 world)))) (=> (not (p1 world)) (box r (=> (p101 world) (not (p1 world)))))))) (=> (p102 world) (and (=> (p2 world) (box r (=> (p102 world) (p2 world)))) (=> (not (p2 world)) (box r (=> (p102 world) (not (p2 world)))))))) (=> (p103 world) (and (=> (p3 world) (box r (=> (p103 world) (p3 world)))) (=> (not (p3 world)) (box r (=> (p103 world) (not (p3 world)))))))) (=> (p104 world) (and (=> (p4 world) (box r (=> (p104 world) (p4 world)))) (=> (not (p4 world)) (box r (=> (p104 world) (not (p4 world))))))))) (and (and (and (=> (and (p100 world) (not (p101 world))) (and (dia r (and (and (p101 world) (not (p102 world))) (p1 world))) (dia r (and (and (p101 world) (not (p102 world))) (not (p1 world)))))) (=> (and (p101 world) (not (p102 world))) (and (dia r (and (and (p102 world) (not (p103 world))) (p2 world))) (dia r (and (and (p102 world) (not (p103 world))) (not (p2 world))))))) (=> (and (p102 world) (not (p103 world))) (and (dia r (and (and (p103 world) (not (p104 world))) (p3 world))) (dia r (and (and (p103 world) (not (p104 world))) (not (p3 world))))))) (=> (and (p103 world) (not (p104 world))) (and (dia r (and (and (p104 world) (not (p105 world))) (p4 world))) (dia r (and (and (p104 world) (not (p105 world))) (not (p4 world)))))))))))) (box r (box r (box r (box r (and (and (and (and (and (and (=> (p101 world) (p100 world)) (=> (p102 world) (p101 world))) (=> (p103 world) (p102 world))) (=> (p104 world) (p103 world))) (=> (p105 world) (p104 world))) (and (and (and (and (=> (p100 world) (and (=> (p0 world) (box r (=> (p100 world) (p0 world)))) (=> (not (p0 world)) (box r (=> (p100 world) (not (p0 world))))))) (=> (p101 world) (and (=> (p1 world) (box r (=> (p101 world) (p1 world)))) (=> (not (p1 world)) (box r (=> (p101 world) (not (p1 world)))))))) (=> (p102 world) (and (=> (p2 world) (box r (=> (p102 world) (p2 world)))) (=> (not (p2 world)) (box r (=> (p102 world) (not (p2 world)))))))) (=> (p103 world) (and (=> (p3 world) (box r (=> (p103 world) (p3 world)))) (=> (not (p3 world)) (box r (=> (p103 world) (not (p3 world)))))))) (=> (p104 world) (and (=> (p4 world) (box r (=> (p104 world) (p4 world)))) (=> (not (p4 world)) (box r (=> (p104 world) (not (p4 world))))))))) (and (and (and (=> (and (p100 world) (not (p101 world))) (and (dia r (and (and (p101 world) (not (p102 world))) (p1 world))) (dia r (and (and (p101 world) (not (p102 world))) (not (p1 world)))))) (=> (and (p101 world) (not (p102 world))) (and (dia r (and (and (p102 world) (not (p103 world))) (p2 world))) (dia r (and (and (p102 world) (not (p103 world))) (not (p2 world))))))) (=> (and (p102 world) (not (p103 world))) (and (dia r (and (and (p103 world) (not (p104 world))) (p3 world))) (dia r (and (and (p103 world) (not (p104 world))) (not (p3 world))))))) (=> (and (p103 world) (not (p104 world))) (and (dia r (and (and (p104 world) (not (p105 world))) (p4 world))) (dia r (and (and (p104 world) (not (p105 world))) (not (p4 world))))))))))))))) (not (box r (box r (box r (box r (p2 world)))))))))
